\ This file was automatically generated by Zimpl
\ set i := {1 to 3};
\ set n := {1 to 3};
\ set ni := n * i;
\ set r := {1, 2};
\ set rn :=  r * n;
\ param RN[rn] :=          <1, 1> 0.008, <1, 2> 0.22, <1, 3> 0,         <2, 1> 0.012, <2, 2> 0,    <2, 3> 0.2;
\ param NI[ni] :=          <1, 1> 0.002, <1, 2> 0.01,  <1, 3> 0.03,         <2, 1> 0.50,  <2, 2> 0.09,  <2, 3> 0,         <3, 1
\ > 0.008, <3, 2> 0.02,  <3, 3> 0.02;
\ param C[i] := <1> 15, <2> 20, <3> 8;
\ param MIN_KG := 1000;
\ var Xi[i] >= 0;
\ minimize custo:         sum <ix> in i: Xi[ix] * C[ix];
\ subto c1 :         sum <ix> in i: Xi[ix] >= MIN_KG;
\ subto c2 :         forall <nx> in n :         sum <ix> in i with ix < 3 : Xi[ix] * NI[nx, ix] >= RN[1, nx] ;
\ subto c3 :         forall <nx> in n :         sum <ix> in i with ix != 2 : Xi[ix] * NI[nx, ix] <= RN[2, nx] ;
\Problem name: file
Minimize
 custo:  +15 Xi#1 +20 Xi#2 +8 Xi#3
Subject to
 c1_1:
  + Xi#3 + Xi#2 + Xi#1 >= 1000
 c2_1:
  +0.01 Xi#2 +0.002 Xi#1 >= 0.008
 c2_2:
  +0.09 Xi#2 +0.5 Xi#1 >= 0.22
 c2_3:
  +0.02 Xi#2 +0.008 Xi#1 >= 0
 c3_1:
  +0.03 Xi#3 +0.002 Xi#1 <= 0.012
 c3_2:
  +0.5 Xi#1 <= 0
 c3_3:
  +0.02 Xi#3 +0.008 Xi#1 <= 0.2
Bounds
 0 <= Xi#1 <= +inf
 0 <= Xi#2 <= +inf
 0 <= Xi#3 <= +inf
End
